StudentsNr = 10;
InstructorsNr = 98;
DaysNr = 1;
SlotsPerDay = 15;
AvailabilitySlotsLenght = 5;
RoomNr = 1;
ProgrammNr = 1;
DegreeNr = 3;
RolesNr = 4;
CoursesNr = 4;
InstructorsProgramm = [{1}, {1}, {1}, {1}, {1}, {1}, {1}, {1}, {1}, {1}, {1}, {1}, {1}, {1}, {1}, {1}, {1}, {1}, {1}, {1}, {1}, {1}, {1}, {1}, {1}, {1}, {1}, {1}, {1}, {1}, {1}, {1}, {1}, {1}, {1}, {1}, {1}, {1}, {1}, {1}, {1}, {1}, {1}, {1}, {1}, {1}, {1}, {1}, {1}, {1}, {1}, {1}, {1}, {1}, {1}, {1}, {1}, {1}, {1}, {1}, {1}, {1}, {1}, {1}, {1}, {1}, {1}, {1}, {1}, {1}, {1}, {1}, {1}, {1}, {1}, {1}, {1}, {1}, {1}, {1}, {1}, {1}, {1}, {1}, {1}, {1}, {1}, {1}, {1}, {1}, {1}, {1}, {1}, {1}, {1}, {1}, {1}, {1}];
InstructorRolesPerProgramm = [|{1, 2, 4, 5, 6, 7, 8, 9, 14, 19, 22, 23, 25, 28, 31, 33, 34, 35, 39, 41, 44, 45, 46, 48, 49, 50, 51, 54, 56, 57, 60, 64, 66, 69, 70, 74, 76, 77, 80, 84, 86, 88, 89, 95, 98}, {1, 3, 4, 5, 8, 9, 11, 16, 19, 20, 25, 31, 34, 35, 40, 42, 48, 51, 53, 58, 60, 62, 65, 66, 68, 69, 70, 76, 77, 78, 82, 86, 87, 91, 92, 93, 94, 95, 98}, {1, 2, 3, 4, 9, 11, 13, 14, 15, 19, 21, 23, 24, 26, 27, 28, 31, 32, 33, 35, 40, 41, 42, 49, 52, 62, 64, 65, 68, 69, 71, 75, 77, 78, 82, 83, 84, 85, 93, 94, 95, 98}, {5, 8, 10, 14, 17, 20, 21, 23, 28, 31, 33, 36, 40, 42, 45, 48, 49, 50, 51, 57, 62, 64, 66, 68, 69, 72, 75, 77, 80, 81, 85, 88, 92, 98}|];
InstructorsAvailability = [|0, 0, 1, |1, 1, 1, |1, 1, 1, |1, 1, 1, |0, 0, 1, |0, 1, 1, |1, 1, 1, |1, 0, 1, |0, 0, 0, |1, 1, 1, |0, 1, 1, |1, 1, 1, |0, 1, 0, |1, 1, 1, |0, 1, 1, |1, 0, 0, |1, 1, 1, |1, 1, 1, |1, 1, 1, |0, 0, 1, |0, 0, 0, |1, 1, 0, |1, 1, 1, |1, 1, 1, |1, 1, 1, |0, 0, 0, |0, 0, 1, |0, 0, 1, |1, 1, 1, |1, 1, 1, |0, 1, 1, |1, 1, 1, |0, 0, 0, |1, 1, 1, |1, 1, 1, |0, 1, 1, |0, 0, 1, |1, 0, 0, |0, 0, 1, |1, 1, 1, |1, 1, 1, |0, 0, 1, |0, 1, 1, |0, 1, 0, |1, 1, 1, |1, 1, 0, |0, 0, 1, |0, 0, 1, |1, 1, 1, |1, 1, 1, |1, 1, 1, |1, 1, 0, |1, 1, 1, |1, 1, 0, |1, 1, 1, |1, 1, 1, |0, 1, 1, |1, 0, 0, |0, 0, 1, |0, 1, 1, |1, 1, 1, |1, 1, 1, |0, 1, 1, |0, 1, 1, |1, 1, 1, |1, 1, 1, |0, 1, 0, |1, 0, 0, |1, 1, 0, |1, 1, 1, |1, 1, 1, |0, 0, 1, |0, 1, 1, |1, 1, 0, |1, 1, 0, |0, 1, 1, |1, 1, 0, |1, 1, 1, |1, 1, 1, |1, 1, 1, |1, 1, 1, |0, 0, 1, |1, 1, 1, |1, 1, 1, |1, 1, 1, |0, 1, 1, |0, 0, 1, |1, 1, 1, |0, 1, 1, |0, 0, 1, |1, 1, 0, |1, 1, 1, |0, 1, 1, |0, 1, 1, |1, 1, 1, |1, 1, 1, |1, 1, 0, |0, 1, 0|];
StudentsProgramm = [1, 1, 1, 1, 1, 1, 1, 1, 1, 1];
StudentsDegree = [2, 2, 1, 3, 1, 2, 1, 1, 3, 3];
StudentsSupervisorId = [97, 50, 87, 79, 11, 11, 90, 35, 62, 92];
StudentsCourseIds = [{1, 3, 4}, {1, 3, 4}, {3}, {1, 2, 3, 4}, {3}, {2, 3, 4}, {1}, {3}, {1, 2, 3, 4}, {1, 2, 3, 4}];
StudentsAvailability = [|1, 1, 1, |1, 1, 1, |1, 1, 1, |1, 1, 1, |1, 1, 1, |0, 1, 1, |1, 1, 1, |1, 1, 1, |1, 1, 1, |0, 0, 0|];
TheoryticalMinCard = [0, 0, 0, 1, 0, 0, 1, 0, 0, 0];
CoursesInstructorIds = [{1, 16, 18, 24, 25, 30, 33, 34, 42, 46, 75, 78, 88, 92}, {19, 30}, {1, 2, 4, 10, 11, 13, 21, 22, 23, 24, 25, 26, 30, 33, 40, 43, 44, 51, 56, 60, 62, 64, 71, 74, 75, 78, 82, 84, 90}, {4, 7, 8, 9, 10, 11, 12, 13, 16, 17, 18, 19, 21, 22, 24, 25, 26, 27, 28, 29, 33, 34, 35, 36, 37, 38, 39, 40, 41, 43, 48, 49, 51, 52, 53, 54, 58, 59, 60, 61, 62, 63, 65, 66, 67, 70, 71, 74, 75, 76, 77, 78, 81, 82, 83, 84, 85, 86, 92, 93, 94, 95, 96, 97, 98}];
RolesDemands = [41, 29, 27, 7];
RolesContinuity = [4, 2];
ExamLen = [1, 1, 1, 2, 1, 1, 1, 1, 2, 2];
LunchTsMinLen = 1;
LunchStarts = [4..8];
SupervisorAvailable = 5;
OptimalLunchLenght = [3, 1];
OptimalStartTs = [1, 0];
OptimalFinishTs = [0, 15];
MinimizeRooms = 100;
RolesSoftContinuity = [|1, 2, 3, 4|4, 4, 3, 4|];
SameDegreeInRoom = 20;
Mergeability = 1;
